p cnf 20 40
1 0
-1 0
2 3 -4 0
-2 5 6 0
3 -5 7 0
-3 4 8 0
-4 -6 9 0
5 -7 10 0
-5 6 -8 0
7 8 -9 0
-7 -8 11 0
9 -10 12 0
-9 10 -11 0
11 12 -13 0
-11 -12 14 0
13 -14 15 0
-13 14 -16 0
15 16 -17 0
-15 -16 18 0
17 -18 19 0
-17 18 -20 0
2 -3 4 0
-2 3 -5 0
4 5 -6 0
-4 -5 6 0
6 7 -8 0
-6 -7 8 0
8 9 -10 0
-8 -9 10 0
10 11 -12 0
-10 -11 12 0
12 13 -14 0
-12 -13 14 0
14 15 -16 0
-14 -15 16 0
16 17 -18 0
-16 -17 18 0
18 19 -20 0
-18 -19 20 0